! MP2 cc-pvDZ TightSCF KeepDens NoKeepInts

%scf
  KeepInts false
 end
%mp2
  Density relaxed
  MaxCore 9000
 end

*xyz  0  1
    N    21.6615411   23.6282465   15.1117084
    C    22.1275806   22.3346078   15.0405942
    O    23.0503163   22.1192233   14.2664452
    C    20.5778012   24.1001562   15.8020480
    O    20.1867847   25.2703985   15.7327656
    C    19.8425091   23.0097621   16.6244033
    C    18.1087566   22.4183039   18.2126591
    H    17.3465897   22.7970240   18.8872468
    C    18.4196652   21.1160705   18.1403559
    C    19.5000825   20.6929492   17.3854054
    C    20.2700552   21.6545959   16.6444146
    C    21.3368264   21.2673047   15.8234195
    C    21.7834088   19.9550786   15.8466176
    H    22.5914069   19.7087335   15.1640862
    C    21.0781552   18.9924061   16.5711179
    H    21.4240950   17.9646366   16.5127090
    C    19.9374688   19.3104847   17.3599608
    C    19.1642547   18.3799194   18.0831168
    C    19.5385324   17.0013786   18.0246740
    C    18.6077981   15.9962321   18.4201193
    H    18.7023974   14.9304929   18.2339825
    H    20.4660557   16.5603365   17.6717175
    C    17.9549815   18.7737826   18.6303451
    C    17.5624043   20.1565130   18.6800172
    C    16.3026795   20.4360457   19.3009969
    H    15.9214027   21.4525364   19.2732374
    C    15.5046787   19.4657300   19.8371581
    H    14.5519251   19.6744835   20.3147338
    C    15.8470072   18.0878174   19.6478077
    C    14.9131476   17.0830827   20.1497074
    O    13.8743475   17.3360928   20.7208555
    C    17.0888585   17.7404498   19.0627140
    C    17.3719136   16.3579502   18.9862879
    C    16.4130896   15.2752229   19.4817594
    O    16.7412997   14.1144448   19.3580675
    N    15.2328660   15.7487198   20.0160567
    C    18.7607710   23.4003835   17.4301021
    H    18.5181889   24.4564599   17.5025775
    H    22.1800888   24.3332152   14.6017144
    H    14.5765267   15.0535431   20.3505930
*
