! MP2 cc-pvDZ TightSCF KeepDens NoKeepInts

%scf
  KeepInts false
 end
%mp2
  Density relaxed
  MaxCore 9000
 end

*xyz  0  1
    N    23.2738546   22.4690044   14.6301808
    C    23.7008577   21.2265839   15.0794478
    O    24.9002334   20.9837700   15.1534163
    C    21.9336580   22.8094584   14.4930596
    O    21.6400876   23.8349465   13.9571174
    C    20.9310626   21.8922196   15.1297430
    C    18.7767121   21.5290925   16.0325044
    H    17.7746994   21.8976474   16.2313374
    C    19.0461793   20.2509381   16.5341562
    C    20.3411863   19.7643189   16.2343660
    C    21.2787804   20.6141135   15.6013078
    C    22.6478289   20.2511437   15.5355362
    C    23.0114649   18.9262368   15.9302676
    H    24.0474153   18.6437009   15.7678596
    C    22.0874249   18.0234254   16.3886124
    H    22.4070427   16.9994062   16.5578020
    C    20.7631465   18.4514059   16.6376784
    C    19.7693083   17.5969565   17.2612133
    C    20.0634376   16.2301955   17.5121339
    C    19.0847083   15.3750295   18.0465228
    H    19.2612085   14.3187293   18.2267271
    H    21.0132503   15.7625780   17.2700886
    C    18.4863891   18.0879356   17.5792685
    C    18.1535446   19.4452404   17.2815675
    C    16.8496172   19.8481622   17.6033864
    H    16.4401267   20.8174457   17.3346801
    C    15.8559944   19.0328167   18.1890735
    H    14.8340160   19.3368365   18.3952972
    C    16.2136363   17.7023414   18.4904071
    C    15.0993694   16.7331279   18.8292980
    O    13.9271164   17.0090054   18.9140792
    C    17.4987915   17.2405585   18.1697526
    C    17.8246590   15.8898838   18.4192545
    C    16.8042229   14.8995700   18.8858841
    O    17.0081429   13.6945478   18.9979036
    N    15.5155920   15.4245507   19.0485444
    C    19.6541178   22.3451771   15.3145593
    H    19.3307243   23.3199322   14.9614799
    H    23.9862881   23.1288379   14.3420404
    H    14.7962905   14.7404472   19.2499744
*
